c ren 1 -> 1
c ren 2 -> 2
c ren 4 -> 3
c ren 7 -> 4
c ren 9 -> 5
c ren 10 -> 6
c ren 12 -> 7
c ren 14 -> 8
c ren 17 -> 9
c ren 21 -> 10
c ren 27 -> 11
c ren 28 -> 12
c ren 30 -> 13
c ren 35 -> 14
c ren 36 -> 15
c ren 37 -> 16
c ren 40 -> 17
c ren 43 -> 18
c ren 44 -> 19
c ren 55 -> 20
c ren 67 -> 21
c ren 69 -> 22
c ren 77 -> 23
c ren 95 -> 24
c ren 103 -> 25
c ren 115 -> 26
c ren 128 -> 27
c ren 151 -> 28
c ren 166 -> 29
p cnf 29 94
a 1 2 3 5 6 7 9 10 11 12 13 15 16 18 21 25 26 27 28 0
d 20 1 5 0
d 22 9 10 0
d 23 21 0
d 24 11 15 0
d 29 28 0
e 4 8 14 17 19 0
-1 -2 -4 0
-1 2 3 4 0
-3 12 14 16 -17 -19 -22 -23 26 -29 0
1 2 3 -4 0
-2 12 14 16 -17 -19 -22 -23 26 -29 0
-2 14 -17 -19 -20 0
-5 -6 -8 0
-5 6 -7 8 0
-3 14 -17 -19 -20 0
5 6 -7 -8 0
5 7 8 0
-5 7 -8 0
5 -6 8 0
8 14 0
2 3 -4 6 7 -8 -9 -10 11 -12 -14 0
2 3 -4 -6 -8 -9 10 11 -12 -14 0
2 3 -4 6 7 -8 -9 -10 11 -13 -14 0
-2 -4 -7 -8 9 10 11 -12 -14 0
2 3 -4 -6 -8 -9 10 11 -13 -14 0
2 3 -4 -6 -8 -9 10 -11 12 13 -14 0
2 3 -4 -7 -8 -9 10 -11 12 13 -14 0
1 -3 4 0
-2 -4 6 7 -8 9 -10 11 -13 -14 0
6 7 -12 14 -17 -19 -23 -24 0
-2 -4 -7 -8 9 10 -11 12 13 -14 0
2 3 -4 -7 -8 -9 10 11 -13 -14 0
-2 -4 -6 -8 9 10 11 -12 -14 0
1 -2 4 0
-2 -4 -6 -8 9 10 11 -13 -14 0
-2 -4 -7 -8 9 10 11 -13 -14 0
4 14 0
6 7 -13 14 -17 -19 -23 -24 0
-3 18 19 0
-1 -3 -4 0
2 3 -15 -16 17 0
2 3 6 7 12 13 14 -16 -17 -19 21 24 0
2 3 6 7 12 13 14 16 -17 -19 21 25 -26 0
-2 14 -17 -19 -21 -22 0
-2 12 -13 14 -17 -19 -22 -23 0
2 3 6 7 14 -17 -19 -21 22 0
-2 -4 6 7 -8 9 -10 11 -12 -14 0
2 3 -4 6 7 -8 -9 -10 -11 12 13 -14 0
-3 12 14 16 -17 -19 -22 -23 -25 0
-3 12 -13 14 -17 -19 -22 -23 0
-3 14 -17 -19 -21 -22 0
-3 12 14 16 -17 -19 -22 -23 26 -28 0
-2 12 14 16 -17 -19 -22 -23 26 -28 0
-6 12 14 16 -17 -19 -22 -23 -25 0
-6 12 -13 14 -17 -19 -22 -23 0
-2 12 14 16 -17 -19 -22 -23 -25 0
-6 12 14 16 -17 -19 -22 -23 26 -27 0
-6 12 14 16 -17 -19 -22 -23 26 -29 0
-6 12 14 16 -17 -19 -22 -23 26 -28 0
-3 -4 -6 -8 9 10 11 -12 -14 0
-6 14 -17 -19 -20 0
7 14 -17 -19 -20 0
-3 -4 -7 -8 9 10 -11 12 13 -14 0
6 7 14 16 -17 -19 -23 -24 0
-3 12 14 16 -17 -19 -22 -23 26 -27 0
-3 -4 6 7 -8 9 -10 11 -12 -14 0
-3 -4 6 7 -8 9 -10 -11 12 13 -14 0
-3 -4 -6 -8 9 10 -11 12 13 -14 0
-2 -4 -6 -8 9 10 -11 12 13 -14 0
-3 -4 6 7 -8 9 -10 11 -13 -14 0
-3 -4 -6 -8 9 10 11 -13 -14 0
-3 -4 -7 -8 9 10 11 -13 -14 0
-7 14 -17 -19 -21 -22 0
-2 12 14 16 -17 -19 -22 -23 26 -27 0
-7 12 14 16 -17 -19 -22 -23 -25 0
-2 18 19 0
-7 12 -13 14 -17 -19 -22 -23 0
-6 14 -17 -19 -21 -22 0
-2 -4 6 7 -8 9 -10 -11 12 13 -14 0
-3 -4 -7 -8 9 10 11 -12 -14 0
6 7 12 13 14 16 -17 -19 -23 25 26 0
-3 6 7 14 -17 -19 -23 -24 0
-2 6 7 12 13 14 16 -17 -19 -23 25 0
-2 15 17 0
-3 15 17 0
-2 6 7 14 -17 -19 -23 -24 0
2 3 6 -7 14 -17 -19 20 0
-7 12 14 16 -17 -19 -22 -23 26 -28 0
2 3 6 7 12 14 16 -17 -19 22 -28 0
-7 12 14 16 -17 -19 -22 -23 26 -27 0
2 3 6 7 14 -17 -19 21 23 0
2 3 6 7 12 14 16 -17 -19 22 26 0
2 3 -18 19 0
2 3 6 7 12 13 14 16 -17 -19 21 25 27 28 29 0
2 3 -4 -7 -8 -9 10 11 -12 -14 0
2 3 6 7 12 14 16 -17 -19 22 -25 0
-7 12 14 16 -17 -19 -22 -23 26 -29 0
-3 6 7 12 13 14 16 -17 -19 -23 25 0
2 3 6 7 12 -13 14 -17 -19 22 0
15 16 17 0
